sat
(:added-eqs                       7990
 :arith-eq-adapter                625
 :arith-bound-propagations-lp     683
 :arith-branch                    36
 :arith-conflicts                 2140
 :arith-cube-calls                12
 :arith-diseq                     4920
 :arith-fixed-eqs                 2326
 :arith-gcd-calls                 480
 :arith-gomory-cuts               7
 :arith-grobner-calls             551
 :arith-grobner-conflicts         347
 :arith-hnf-calls                 3
 :arith-horner-calls              139
 :arith-horner-conflicts          6
 :arith-horner-cross-nested-forms 49097
 :arith-lower                     6922
 :arith-make-feasible             6779
 :arith-max-columns               427
 :arith-max-rows                  266
 :arith-nla-add-bounds            351
 :arith-nla-lemmas                1468
 :arith-nla-propagate-bounds      454
 :arith-nla-propagate-eq          2625
 :arith-nra-calls                 104
 :arith-offset-eqs                539
 :arith-patches                   480
 :arith-patches-success           436
 :arith-upper                     9092
 :binary-propagations             19581
 :cnf-encoding-aux-vars           6
 :conflicts                       417
 :decisions                       24366
 :del-clause                      2446
 :final-checks                    1145
 :max-memory                      101.73
 :memory                          58.32
 :minimized-lits                  278
 :mk-bool-var                     5994
 :mk-clause                       3513
 :mk-clause-binary                1288
 :nlsat-conflicts                 11253
 :nlsat-decisions                 1019
 :nlsat-propagations              193971
 :nlsat-restarts                  2
 :nlsat-stages                    80694
 :num-allocs                      6688082572.00
 :num-checks                      1
 :propagations                    36263
 :restarts                        4
 :rlimit-count                    4758120
 :sat-mk-clause-2ary              142219
 :sat-mk-clause-nary              190293
 :sat-mk-var                      96084
 :solve-eqs-elim-vars             14
 :solve-eqs-steps                 320
 :time                            2.49
 :total-time                      2.49)
